c ind 10 13 18 19 21 23 25 34 36 38 0
c ind 40 5 6 9 0
p cnf 65 190
-1 -2 11 0
-1 2 59 0
-11 -12 14 0
-11 12 26 0
-12 -13 9 0
-12 -9 13 0
-14 15 0
-14 24 0
-15 16 0
-15 22 0
-16 17 0
-16 20 0
-17 -18 19 0
-17 -19 18 0
-19 0
-2 3 7 0
-20 -19 21 0
-20 -21 19 0
-22 -19 23 0
-22 -23 19 0
-24 -19 25 0
-24 -25 19 0
-26 -27 29 0
-26 27 59 0
-27 28 0
-27 3 0
-28 -13 5 0
-28 -5 13 0
-29 -30 14 0
-29 30 41 0
-3 -4 0
-30 31 0
-30 39 0
-31 32 0
-31 37 0
-32 33 0
-32 35 0
-33 -13 34 0
-33 -34 13 0
-35 -13 36 0
-35 -36 13 0
-37 -13 38 0
-37 -38 13 0
-39 -13 40 0
-39 -40 13 0
-4 -5 6 0
-4 -6 5 0
-41 42 0
-41 55 0
-42 43 0
-42 51 0
-43 44 0
-43 47 0
-44 -18 45 0
-44 -45 18 0
-45 -46 -19 0
-45 46 19 0
-46 -34 -13 0
-46 34 13 0
-47 -21 48 0
-47 -48 21 0
-48 -49 -50 0
-48 49 50 0
-49 -36 -19 0
-49 36 19 0
-50 34 19 0
-51 -23 52 0
-51 -52 23 0
-52 -53 -54 0
-52 53 54 0
-53 -38 -19 0
-53 38 19 0
-54 36 0
-54 50 0
-55 -25 56 0
-55 -56 25 0
-56 -57 -58 0
-56 57 58 0
-57 -40 -19 0
-57 40 19 0
-58 38 0
-58 54 0
-59 60 0
-59 65 0
-60 61 0
-60 64 0
-61 62 0
-61 63 0
-62 -18 34 0
-62 -34 18 0
-63 -21 36 0
-63 -36 21 0
-64 -23 38 0
-64 -38 23 0
-65 -25 40 0
-65 -40 25 0
-7 -8 0
-8 -10 9 0
-8 -9 10 0
1 -11 -59 0
1 -2 -11 0
1 0
1 2 -59 0
11 -12 -14 0
11 -14 -26 0
11 12 -26 0
12 -9 -13 0
12 9 13 0
13 0
14 -15 -24 0
15 -16 -22 0
16 -17 -20 0
17 -18 -19 0
17 18 19 0
2 -3 0
2 -7 0
20 -21 -19 0
20 21 19 0
22 -23 -19 0
22 23 19 0
24 -25 -19 0
24 25 19 0
26 -27 -29 0
26 -29 -59 0
26 27 -59 0
27 -3 -28 0
28 -5 -13 0
28 5 13 0
29 -14 -41 0
29 -30 -14 0
29 30 -41 0
3 4 0
30 -31 -39 0
31 -32 -37 0
32 -33 -35 0
33 -34 -13 0
33 34 13 0
35 -36 -13 0
35 36 13 0
37 -38 -13 0
37 38 13 0
39 -40 -13 0
39 40 13 0
4 -5 -6 0
4 5 6 0
41 -42 -55 0
42 -43 -51 0
43 -44 -47 0
44 -18 -45 0
44 18 45 0
45 -19 46 0
45 -46 19 0
46 -13 34 0
46 -34 13 0
47 -21 -48 0
47 21 48 0
48 -49 50 0
48 -50 49 0
49 -19 36 0
49 -36 19 0
50 -19 0
50 -34 0
51 -23 -52 0
51 23 52 0
52 -53 54 0
52 -54 53 0
53 -19 38 0
53 -38 19 0
54 -36 -50 0
55 -25 -56 0
55 25 56 0
56 -57 58 0
56 -58 57 0
57 -19 40 0
57 -40 19 0
58 -38 -54 0
59 -60 -65 0
60 -61 -64 0
61 -62 -63 0
62 -18 -34 0
62 18 34 0
63 -21 -36 0
63 21 36 0
64 -23 -38 0
64 23 38 0
65 -25 -40 0
65 25 40 0
7 8 0
8 -9 -10 0
8 9 10 0
